Traveling Salesman Problem/TSP_generados/Aleatorio1620390954_10.tsp
NAME: Aleatorio1620390954_10.tsp
COMMENT: Randomly generated scenario
TYPE: TSP
DIMENSION: 10
EDGE_WEIGHT_TYPE: ATT
NODE_COORD_SECTION
1 19.09 40.69
2 45.13 12.18
3 40.38 3.54
4 7.32 40.52
5 32.42 45.43
6 3.01 46.97
7 16.04 35.83
8 29.92 48.92
9 20.79 45.7
10 20.42 7.1
