Traveling Salesman Problem/TSP_generados/Aleatorio1620390954_10.opt.tour
NAME: Aleatorio1620390954_10.opt.tour
COMMENT: Optimal solution for Aleatorio1620390954_10 (148.97932487405348)
TYPE: TOUR
DIMENSION: 10
TOUR_SECTION
1 9 8 5 2 3 10 7 4 6
-1
EOF
